p cnf 250 1284
1 2 3 4 5 0
6 7 8 9 10 0
11 12 13 14 15 0
16 17 18 19 20 0
21 22 23 24 25 0
26 27 28 29 30 0
31 32 33 34 35 0
36 37 38 39 40 0
41 42 43 44 45 0
46 47 48 49 50 0
51 52 53 54 55 0
56 57 58 59 60 0
61 62 63 64 65 0
66 67 68 69 70 0
71 72 73 74 75 0
76 77 78 79 80 0
81 82 83 84 85 0
86 87 88 89 90 0
91 92 93 94 95 0
96 97 98 99 100 0
101 102 103 104 105 0
106 107 108 109 110 0
111 112 113 114 115 0
116 117 118 119 120 0
121 122 123 124 125 0
126 127 128 129 130 0
131 132 133 134 135 0
136 137 138 139 140 0
141 142 143 144 145 0
146 147 148 149 150 0
151 152 153 154 155 0
156 157 158 159 160 0
161 162 163 164 165 0
166 167 168 169 170 0
171 172 173 174 175 0
176 177 178 179 180 0
181 182 183 184 185 0
186 187 188 189 190 0
191 192 193 194 195 0
196 197 198 199 200 0
201 202 203 204 205 0
206 207 208 209 210 0
211 212 213 214 215 0
216 217 218 219 220 0
221 222 223 224 225 0
226 227 228 229 230 0
231 232 233 234 235 0
236 237 238 239 240 0
241 242 243 244 245 0
246 247 248 249 250 0
-1 -2 0
-1 -3 0
-1 -4 0
-1 -5 0
-2 -3 0
-2 -4 0
-2 -5 0
-3 -4 0
-3 -5 0
-4 -5 0
-6 -7 0
-6 -8 0
-6 -9 0
-6 -10 0
-7 -8 0
-7 -9 0
-7 -10 0
-8 -9 0
-8 -10 0
-9 -10 0
-11 -12 0
-11 -13 0
-11 -14 0
-11 -15 0
-12 -13 0
-12 -14 0
-12 -15 0
-13 -14 0
-13 -15 0
-14 -15 0
-16 -17 0
-16 -18 0
-16 -19 0
-16 -20 0
-17 -18 0
-17 -19 0
-17 -20 0
-18 -19 0
-18 -20 0
-19 -20 0
-21 -22 0
-21 -23 0
-21 -24 0
-21 -25 0
-22 -23 0
-22 -24 0
-22 -25 0
-23 -24 0
-23 -25 0
-24 -25 0
-26 -27 0
-26 -28 0
-26 -29 0
-26 -30 0
-27 -28 0
-27 -29 0
-27 -30 0
-28 -29 0
-28 -30 0
-29 -30 0
-31 -32 0
-31 -33 0
-31 -34 0
-31 -35 0
-32 -33 0
-32 -34 0
-32 -35 0
-33 -34 0
-33 -35 0
-34 -35 0
-36 -37 0
-36 -38 0
-36 -39 0
-36 -40 0
-37 -38 0
-37 -39 0
-37 -40 0
-38 -39 0
-38 -40 0
-39 -40 0
-41 -42 0
-41 -43 0
-41 -44 0
-41 -45 0
-42 -43 0
-42 -44 0
-42 -45 0
-43 -44 0
-43 -45 0
-44 -45 0
-46 -47 0
-46 -48 0
-46 -49 0
-46 -50 0
-47 -48 0
-47 -49 0
-47 -50 0
-48 -49 0
-48 -50 0
-49 -50 0
-51 -52 0
-51 -53 0
-51 -54 0
-51 -55 0
-52 -53 0
-52 -54 0
-52 -55 0
-53 -54 0
-53 -55 0
-54 -55 0
-56 -57 0
-56 -58 0
-56 -59 0
-56 -60 0
-57 -58 0
-57 -59 0
-57 -60 0
-58 -59 0
-58 -60 0
-59 -60 0
-61 -62 0
-61 -63 0
-61 -64 0
-61 -65 0
-62 -63 0
-62 -64 0
-62 -65 0
-63 -64 0
-63 -65 0
-64 -65 0
-66 -67 0
-66 -68 0
-66 -69 0
-66 -70 0
-67 -68 0
-67 -69 0
-67 -70 0
-68 -69 0
-68 -70 0
-69 -70 0
-71 -72 0
-71 -73 0
-71 -74 0
-71 -75 0
-72 -73 0
-72 -74 0
-72 -75 0
-73 -74 0
-73 -75 0
-74 -75 0
-76 -77 0
-76 -78 0
-76 -79 0
-76 -80 0
-77 -78 0
-77 -79 0
-77 -80 0
-78 -79 0
-78 -80 0
-79 -80 0
-81 -82 0
-81 -83 0
-81 -84 0
-81 -85 0
-82 -83 0
-82 -84 0
-82 -85 0
-83 -84 0
-83 -85 0
-84 -85 0
-86 -87 0
-86 -88 0
-86 -89 0
-86 -90 0
-87 -88 0
-87 -89 0
-87 -90 0
-88 -89 0
-88 -90 0
-89 -90 0
-91 -92 0
-91 -93 0
-91 -94 0
-91 -95 0
-92 -93 0
-92 -94 0
-92 -95 0
-93 -94 0
-93 -95 0
-94 -95 0
-96 -97 0
-96 -98 0
-96 -99 0
-96 -100 0
-97 -98 0
-97 -99 0
-97 -100 0
-98 -99 0
-98 -100 0
-99 -100 0
-101 -102 0
-101 -103 0
-101 -104 0
-101 -105 0
-102 -103 0
-102 -104 0
-102 -105 0
-103 -104 0
-103 -105 0
-104 -105 0
-106 -107 0
-106 -108 0
-106 -109 0
-106 -110 0
-107 -108 0
-107 -109 0
-107 -110 0
-108 -109 0
-108 -110 0
-109 -110 0
-111 -112 0
-111 -113 0
-111 -114 0
-111 -115 0
-112 -113 0
-112 -114 0
-112 -115 0
-113 -114 0
-113 -115 0
-114 -115 0
-116 -117 0
-116 -118 0
-116 -119 0
-116 -120 0
-117 -118 0
-117 -119 0
-117 -120 0
-118 -119 0
-118 -120 0
-119 -120 0
-121 -122 0
-121 -123 0
-121 -124 0
-121 -125 0
-122 -123 0
-122 -124 0
-122 -125 0
-123 -124 0
-123 -125 0
-124 -125 0
-126 -127 0
-126 -128 0
-126 -129 0
-126 -130 0
-127 -128 0
-127 -129 0
-127 -130 0
-128 -129 0
-128 -130 0
-129 -130 0
-131 -132 0
-131 -133 0
-131 -134 0
-131 -135 0
-132 -133 0
-132 -134 0
-132 -135 0
-133 -134 0
-133 -135 0
-134 -135 0
-136 -137 0
-136 -138 0
-136 -139 0
-136 -140 0
-137 -138 0
-137 -139 0
-137 -140 0
-138 -139 0
-138 -140 0
-139 -140 0
-141 -142 0
-141 -143 0
-141 -144 0
-141 -145 0
-142 -143 0
-142 -144 0
-142 -145 0
-143 -144 0
-143 -145 0
-144 -145 0
-146 -147 0
-146 -148 0
-146 -149 0
-146 -150 0
-147 -148 0
-147 -149 0
-147 -150 0
-148 -149 0
-148 -150 0
-149 -150 0
-151 -152 0
-151 -153 0
-151 -154 0
-151 -155 0
-152 -153 0
-152 -154 0
-152 -155 0
-153 -154 0
-153 -155 0
-154 -155 0
-156 -157 0
-156 -158 0
-156 -159 0
-156 -160 0
-157 -158 0
-157 -159 0
-157 -160 0
-158 -159 0
-158 -160 0
-159 -160 0
-161 -162 0
-161 -163 0
-161 -164 0
-161 -165 0
-162 -163 0
-162 -164 0
-162 -165 0
-163 -164 0
-163 -165 0
-164 -165 0
-166 -167 0
-166 -168 0
-166 -169 0
-166 -170 0
-167 -168 0
-167 -169 0
-167 -170 0
-168 -169 0
-168 -170 0
-169 -170 0
-171 -172 0
-171 -173 0
-171 -174 0
-171 -175 0
-172 -173 0
-172 -174 0
-172 -175 0
-173 -174 0
-173 -175 0
-174 -175 0
-176 -177 0
-176 -178 0
-176 -179 0
-176 -180 0
-177 -178 0
-177 -179 0
-177 -180 0
-178 -179 0
-178 -180 0
-179 -180 0
-181 -182 0
-181 -183 0
-181 -184 0
-181 -185 0
-182 -183 0
-182 -184 0
-182 -185 0
-183 -184 0
-183 -185 0
-184 -185 0
-186 -187 0
-186 -188 0
-186 -189 0
-186 -190 0
-187 -188 0
-187 -189 0
-187 -190 0
-188 -189 0
-188 -190 0
-189 -190 0
-191 -192 0
-191 -193 0
-191 -194 0
-191 -195 0
-192 -193 0
-192 -194 0
-192 -195 0
-193 -194 0
-193 -195 0
-194 -195 0
-196 -197 0
-196 -198 0
-196 -199 0
-196 -200 0
-197 -198 0
-197 -199 0
-197 -200 0
-198 -199 0
-198 -200 0
-199 -200 0
-201 -202 0
-201 -203 0
-201 -204 0
-201 -205 0
-202 -203 0
-202 -204 0
-202 -205 0
-203 -204 0
-203 -205 0
-204 -205 0
-206 -207 0
-206 -208 0
-206 -209 0
-206 -210 0
-207 -208 0
-207 -209 0
-207 -210 0
-208 -209 0
-208 -210 0
-209 -210 0
-211 -212 0
-211 -213 0
-211 -214 0
-211 -215 0
-212 -213 0
-212 -214 0
-212 -215 0
-213 -214 0
-213 -215 0
-214 -215 0
-216 -217 0
-216 -218 0
-216 -219 0
-216 -220 0
-217 -218 0
-217 -219 0
-217 -220 0
-218 -219 0
-218 -220 0
-219 -220 0
-221 -222 0
-221 -223 0
-221 -224 0
-221 -225 0
-222 -223 0
-222 -224 0
-222 -225 0
-223 -224 0
-223 -225 0
-224 -225 0
-226 -227 0
-226 -228 0
-226 -229 0
-226 -230 0
-227 -228 0
-227 -229 0
-227 -230 0
-228 -229 0
-228 -230 0
-229 -230 0
-231 -232 0
-231 -233 0
-231 -234 0
-231 -235 0
-232 -233 0
-232 -234 0
-232 -235 0
-233 -234 0
-233 -235 0
-234 -235 0
-236 -237 0
-236 -238 0
-236 -239 0
-236 -240 0
-237 -238 0
-237 -239 0
-237 -240 0
-238 -239 0
-238 -240 0
-239 -240 0
-241 -242 0
-241 -243 0
-241 -244 0
-241 -245 0
-242 -243 0
-242 -244 0
-242 -245 0
-243 -244 0
-243 -245 0
-244 -245 0
-246 -247 0
-246 -248 0
-246 -249 0
-246 -250 0
-247 -248 0
-247 -249 0
-247 -250 0
-248 -249 0
-248 -250 0
-249 -250 0
-3 -9 0
-2 -10 0
-2 -16 0
-2 -20 0
-4 -27 0
-2 -27 0
-2 -48 0
-5 -50 0
-3 -61 0
-5 -62 0
-4 -93 0
-1 -93 0
-5 -107 0
-5 -110 0
-4 -116 0
-3 -116 0
-3 -124 0
-2 -125 0
-1 -130 0
-2 -126 0
-3 -136 0
-4 -139 0
-2 -143 0
-4 -144 0
-1 -154 0
-4 -154 0
-3 -162 0
-3 -164 0
-2 -193 0
-5 -193 0
-1 -207 0
-3 -210 0
-5 -234 0
-5 -232 0
-8 -17 0
-10 -18 0
-10 -57 0
-10 -59 0
-10 -78 0
-8 -78 0
-6 -111 0
-8 -111 0
-9 -124 0
-8 -122 0
-6 -144 0
-8 -141 0
-9 -154 0
-8 -155 0
-9 -161 0
-9 -165 0
-8 -166 0
-6 -169 0
-6 -179 0
-8 -177 0
-7 -224 0
-8 -222 0
-9 -230 0
-10 -228 0
-8 -236 0
-9 -239 0
-13 -22 0
-12 -24 0
-11 -42 0
-12 -43 0
-13 -59 0
-12 -60 0
-15 -88 0
-14 -88 0
-15 -102 0
-12 -105 0
-14 -110 0
-11 -107 0
-14 -128 0
-12 -130 0
-11 -138 0
-11 -137 0
-15 -150 0
-15 -149 0
-15 -165 0
-14 -164 0
-15 -169 0
-14 -166 0
-14 -171 0
-12 -175 0
-12 -177 0
-13 -176 0
-12 -197 0
-12 -200 0
-15 -216 0
-11 -219 0
-15 -227 0
-12 -230 0
-19 -49 0
-16 -49 0
-18 -73 0
-17 -74 0
-19 -82 0
-20 -83 0
-17 -93 0
-20 -92 0
-18 -116 0
-19 -118 0
-16 -124 0
-18 -123 0
-19 -138 0
-18 -136 0
-20 -141 0
-19 -143 0
-20 -152 0
-19 -154 0
-20 -169 0
-20 -166 0
-17 -175 0
-18 -175 0
-20 -180 0
-16 -178 0
-17 -182 0
-20 -183 0
-24 -29 0
-22 -29 0
-21 -48 0
-25 -48 0
-21 -51 0
-22 -54 0
-25 -74 0
-25 -73 0
-25 -89 0
-23 -89 0
-23 -110 0
-22 -110 0
-24 -115 0
-25 -111 0
-22 -148 0
-25 -146 0
-21 -153 0
-23 -152 0
-23 -171 0
-22 -172 0
-23 -184 0
-21 -183 0
-24 -187 0
-22 -186 0
-21 -209 0
-22 -209 0
-21 -219 0
-22 -216 0
-23 -223 0
-21 -221 0
-30 -60 0
-29 -56 0
-30 -62 0
-29 -63 0
-27 -87 0
-30 -86 0
-28 -154 0
-28 -155 0
-30 -163 0
-30 -161 0
-29 -206 0
-29 -207 0
-26 -215 0
-28 -212 0
-27 -220 0
-27 -218 0
-30 -221 0
-26 -223 0
-28 -236 0
-28 -240 0
-28 -248 0
-27 -248 0
-33 -38 0
-35 -40 0
-35 -60 0
-32 -56 0
-33 -105 0
-31 -105 0
-35 -114 0
-32 -115 0
-33 -130 0
-31 -130 0
-31 -155 0
-34 -154 0
-35 -190 0
-34 -188 0
-37 -58 0
-39 -58 0
-38 -84 0
-37 -84 0
-39 -114 0
-40 -115 0
-40 -118 0
-38 -119 0
-40 -126 0
-36 -126 0
-37 -169 0
-39 -166 0
-44 -68 0
-41 -66 0
-41 -86 0
-45 -89 0
-41 -144 0
-43 -142 0
-42 -169 0
-45 -166 0
-44 -191 0
-45 -191 0
-43 -201 0
-44 -203 0
-44 -226 0
-43 -226 0
-47 -53 0
-46 -52 0
-48 -63 0
-50 -64 0
-47 -92 0
-49 -91 0
-49 -98 0
-49 -96 0
-46 -106 0
-50 -109 0
-46 -113 0
-47 -113 0
-49 -125 0
-49 -123 0
-47 -131 0
-48 -134 0
-46 -149 0
-47 -147 0
-47 -162 0
-48 -162 0
-47 -180 0
-46 -177 0
-48 -184 0
-50 -185 0
-50 -189 0
-49 -188 0
-49 -194 0
-49 -195 0
-50 -227 0
-50 -226 0
-50 -233 0
-46 -232 0
-50 -244 0
-50 -245 0
-55 -69 0
-54 -66 0
-54 -107 0
-51 -107 0
-51 -133 0
-52 -135 0
-52 -141 0
-51 -144 0
-54 -200 0
-52 -200 0
-53 -216 0
-54 -220 0
-54 -228 0
-52 -227 0
-52 -233 0
-55 -233 0
-52 -236 0
-54 -238 0
-59 -92 0
-57 -94 0
-56 -98 0
-58 -100 0
-58 -109 0
-59 -107 0
-60 -116 0
-59 -116 0
-59 -142 0
-58 -142 0
-58 -176 0
-56 -180 0
-59 -187 0
-59 -190 0
-60 -198 0
-56 -197 0
-59 -219 0
-57 -217 0
-57 -221 0
-59 -224 0
-60 -229 0
-57 -230 0
-62 -78 0
-64 -78 0
-64 -82 0
-61 -82 0
-62 -100 0
-62 -99 0
-61 -101 0
-65 -104 0
-64 -128 0
-62 -127 0
-65 -135 0
-65 -134 0
-65 -140 0
-61 -139 0
-62 -149 0
-61 -147 0
-61 -165 0
-64 -162 0
-65 -208 0
-61 -206 0
-61 -211 0
-63 -212 0
-63 -225 0
-61 -223 0
-62 -230 0
-64 -227 0
-62 -231 0
-64 -232 0
-67 -81 0
-70 -82 0
-66 -94 0
-66 -92 0
-68 -104 0
-66 -105 0
-70 -109 0
-68 -106 0
-70 -111 0
-68 -113 0
-66 -119 0
-68 -118 0
-68 -125 0
-69 -125 0
-66 -147 0
-66 -146 0
-69 -158 0
-68 -156 0
-69 -190 0
-69 -187 0
-67 -194 0
-67 -192 0
-70 -231 0
-68 -232 0
-68 -239 0
-67 -238 0
-70 -244 0
-66 -242 0
-73 -84 0
-72 -84 0
-72 -113 0
-71 -113 0
-73 -119 0
-73 -116 0
-71 -138 0
-73 -138 0
-71 -150 0
-71 -146 0
-75 -199 0
-72 -197 0
-74 -206 0
-72 -209 0
-79 -85 0
-76 -84 0
-76 -87 0
-77 -86 0
-77 -92 0
-77 -93 0
-80 -118 0
-80 -117 0
-78 -126 0
-78 -129 0
-77 -155 0
-79 -151 0
-78 -161 0
-78 -165 0
-77 -180 0
-79 -180 0
-79 -189 0
-78 -187 0
-79 -232 0
-78 -232 0
-78 -240 0
-78 -236 0
-84 -87 0
-83 -87 0
-83 -110 0
-82 -107 0
-84 -112 0
-83 -114 0
-84 -120 0
-83 -117 0
-83 -149 0
-82 -150 0
-81 -170 0
-82 -168 0
-81 -173 0
-83 -172 0
-85 -223 0
-81 -221 0
-81 -233 0
-83 -233 0
-88 -104 0
-88 -103 0
-89 -128 0
-88 -127 0
-90 -133 0
-88 -135 0
-86 -142 0
-87 -141 0
-87 -152 0
-90 -155 0
-90 -231 0
-87 -234 0
-89 -245 0
-87 -241 0
-93 -97 0
-93 -100 0
-95 -128 0
-92 -126 0
-92 -157 0
-93 -156 0
-95 -161 0
-95 -165 0
-93 -180 0
-91 -177 0
-94 -183 0
-95 -185 0
-94 -188 0
-94 -190 0
-95 -208 0
-92 -207 0
-94 -211 0
-91 -214 0
-92 -220 0
-91 -217 0
-92 -238 0
-94 -237 0
-97 -102 0
-99 -101 0
-100 -109 0
-100 -106 0
-98 -130 0
-99 -130 0
-97 -132 0
-96 -135 0
-99 -139 0
-96 -138 0
-96 -147 0
-96 -150 0
-97 -168 0
-99 -170 0
-99 -180 0
-96 -180 0
-97 -185 0
-98 -185 0
-98 -199 0
-100 -200 0
-98 -206 0
-96 -206 0
-100 -212 0
-97 -211 0
-96 -228 0
-96 -226 0
-96 -238 0
-97 -238 0
-99 -247 0
-96 -246 0
-104 -124 0
-103 -122 0
-104 -130 0
-101 -130 0
-101 -153 0
-102 -151 0
-103 -161 0
-102 -163 0
-105 -175 0
-105 -173 0
-103 -205 0
-101 -205 0
-101 -206 0
-103 -210 0
-101 -230 0
-103 -230 0
-104 -238 0
-105 -236 0
-102 -243 0
-104 -244 0
-104 -249 0
-102 -246 0
-108 -114 0
-106 -112 0
-109 -125 0
-106 -125 0
-109 -168 0
-106 -170 0
-106 -205 0
-109 -204 0
-110 -220 0
-107 -217 0
-106 -224 0
-108 -225 0
-109 -248 0
-106 -248 0
-114 -133 0
-115 -132 0
-113 -138 0
-113 -140 0
-114 -141 0
-112 -141 0
-114 -157 0
-112 -158 0
-113 -163 0
-111 -164 0
-113 -178 0
-115 -179 0
-115 -189 0
-114 -190 0
-113 -204 0
-114 -203 0
-115 -232 0
-113 -234 0
-118 -121 0
-120 -125 0
-117 -126 0
-117 -128 0
-117 -143 0
-120 -143 0
-120 -173 0
-117 -171 0
-120 -202 0
-117 -205 0
-118 -226 0
-117 -230 0
-120 -235 0
-117 -235 0
-120 -240 0
-117 -239 0
-117 -250 0
-116 -249 0
-123 -158 0
-122 -159 0
-125 -161 0
-124 -165 0
-121 -169 0
-124 -170 0
-125 -195 0
-124 -195 0
-123 -200 0
-125 -198 0
-123 -215 0
-123 -213 0
-122 -224 0
-124 -224 0
-121 -231 0
-122 -234 0
-125 -249 0
-123 -248 0
-129 -135 0
-128 -131 0
-127 -163 0
-129 -163 0
-129 -167 0
-130 -169 0
-130 -172 0
-127 -172 0
-128 -176 0
-128 -178 0
-130 -189 0
-128 -189 0
-130 -213 0
-127 -214 0
-127 -217 0
-130 -216 0
-127 -237 0
-130 -237 0
-131 -157 0
-134 -157 0
-134 -162 0
-134 -163 0
-131 -183 0
-134 -185 0
-131 -240 0
-133 -236 0
-139 -150 0
-140 -146 0
-138 -159 0
-137 -156 0
-138 -162 0
-136 -162 0
-138 -179 0
-136 -176 0
-136 -185 0
-138 -183 0
-138 -191 0
-136 -192 0
-139 -207 0
-138 -207 0
-137 -223 0
-136 -225 0
-136 -226 0
-138 -230 0
-140 -245 0
-139 -243 0
-142 -160 0
-144 -160 0
-143 -182 0
-142 -183 0
-141 -193 0
-143 -194 0
-143 -213 0
-141 -215 0
-143 -222 0
-145 -222 0
-148 -151 0
-150 -154 0
-147 -174 0
-148 -171 0
-147 -208 0
-147 -210 0
-150 -212 0
-150 -214 0
-148 -220 0
-149 -219 0
-150 -237 0
-148 -240 0
-153 -158 0
-154 -157 0
-153 -161 0
-154 -163 0
-151 -174 0
-153 -173 0
-153 -176 0
-155 -178 0
-154 -209 0
-151 -209 0
-154 -232 0
-151 -233 0
-154 -248 0
-151 -248 0
-160 -186 0
-156 -186 0
-159 -191 0
-160 -194 0
-158 -207 0
-160 -210 0
-156 -225 0
-157 -225 0
-158 -233 0
-159 -234 0
-158 -241 0
-157 -245 0
-165 -205 0
-163 -203 0
-164 -210 0
-161 -206 0
-165 -220 0
-161 -216 0
-165 -228 0
-164 -230 0
-165 -238 0
-164 -240 0
-165 -245 0
-162 -242 0
-162 -246 0
-163 -247 0
-170 -179 0
-168 -179 0
-168 -201 0
-167 -201 0
-170 -239 0
-169 -237 0
-173 -180 0
-171 -177 0
-173 -221 0
-174 -225 0
-172 -235 0
-175 -233 0
-172 -249 0
-173 -246 0
-178 -196 0
-176 -198 0
-180 -224 0
-176 -223 0
-180 -227 0
-179 -230 0
-179 -234 0
-179 -233 0
-176 -244 0
-180 -243 0
-181 -194 0
-182 -194 0
-181 -198 0
-184 -200 0
-183 -201 0
-185 -205 0
-183 -208 0
-185 -208 0
-185 -212 0
-182 -211 0
-185 -216 0
-182 -219 0
-185 -223 0
-184 -222 0
-181 -229 0
-184 -228 0
-189 -199 0
-187 -196 0
-187 -222 0
-186 -222 0
-190 -240 0
-189 -239 0
-188 -246 0
-190 -250 0
-193 -203 0
-194 -201 0
-195 -226 0
-191 -228 0
-192 -250 0
-193 -246 0
-200 -202 0
-198 -201 0
-203 -208 0
-202 -209 0
-205 -229 0
-201 -226 0
-205 -232 0
-201 -231 0
-207 -229 0
-210 -227 0
-206 -235 0
-209 -233 0
-209 -242 0
-208 -245 0
-214 -222 0
-213 -221 0
-215 -229 0
-211 -227 0
-223 -245 0
-225 -242 0
-223 -247 0
-222 -247 0
